50 1500
326 155
357 93
286 36
415 112
344 77
906 164
703 100
143 138
674 173
373 81
282 64
693 90
933 94
447 104
701 134
673 120
353 160
136 93
366 171
285 95
798 126
219 56
352 86
278 70
636 75
496 155
931 126
669 111
366 97
145 117
875 132
102 131
480 131
732 94
310 84
760 85
364 41
823 22
397 67
669 69
531 66
370 50
647 18
161 52
696 88
399 136
734 44
616 86
621 48
148 66
